nApps = 228
nRes = 9
nActs = 432
nNetworks = 6

assignmentToResources = [2,3,3,1,2,3,1,3,3,3,1,1,1,2,1,3,2,1,2,1,2,1,3,3,3,2,1,3,3,3,2,3,3,3,2,2,3,1,1,3,1,1,1,1,3,2,2,1,2,2,1,2,2,2,2,2,2,3,2,2,2,3,1,2,2,2,3,2,1,2,2,1,3,1,1,1,1,1,2,1,3,2,3,1,2,1,1,3,1,2,2,2,3,1,1,3,1,1,1,3,5,5,5,5,5,6,6,6,6,6,6,6,6,4,4,4,5,5,5,6,4,6,6,6,6,6,6,6,6,6,6,4,4,4,5,5,4,4,6,6,6,6,5,5,5,5,5,5,5,5,4,5,5,5,4,4,4,4,4,4,5,4,6,6,6,6,6,6,6,6,6,6,6,5,5,5,6,6,6,6,6,6,6,6,6,6,6,6,4,4,4,6,4,4,4,4,4,5,5,4,5,5,4,4,5,5,5,5,5,6,5,5,6,6,4,4,5,5,5,5,4,4,4,5,5,4,6,6,4,4,4,4,4,5,6,6,6,5,5,5,4,4,4,5,5,6,4,4,6,6,4,8,5,9,4,8,5,9,6,8,4,9,6,7,6,8,5,7,5,9,5,9,5,7,6,8,5,7,6,8,5,9,9,7,7,9,9,7,8,7,8,8,7,7,7,9,9,8,9,7,9,8,9,8,7,7,7,7,7,7,8,8,8,8,8,8,9,7,9,9,8,8,8,7,7,9,9,7,7,9,7,7,9,7,7,7,8,9,8,8,8,9,7,9,7,7,8,8,8,8,7,8,8,8,8,9,7,7,7,8,8,8,8,7,7,7,8,7,8,7,9,9,9,7,8,8,8,8,8,7,7,8,7,7,8,8,7,7,9,7,7,8,9,9,7,7,8,9,7,7,9,7,9,8,8,7,9,9,7,7,9,8,8,8,8,9,7,7,8,9,7,7,8,9,8,9,7,7,9,8,7,8];

processingTimes = [112,56,120,128,136,112,104,56,128,64,104,120,128,112,168,136,160,136,64,128,160,160,104,128,152,136,144,152,112,48,112,88,160,104,96,136,112,152,128,168,64,56,168,168,136,72,120,104,112,128,96,64,104,64,80,136,104,160,56,120,136,144,112,120,80,88,120,136,72,128,112,168,80,104,120,48,112,64,136,152,136,96,128,112,56,96,128,80,80,48,48,88,120,136,136,88,128,160,112,56,500,7,4,8,3,3,500,3,5,8,8,3,8,3,3,4,10,5,8,4,4,4,5,3,3,4,4,9,5,4,4,3,3,3,500,4,13,3,500,5,4,4,500,7,4,3,4,4,500,500,5,100,3,100,4,4,13,13,3,3,3,5,5,5,8,100,3,3,3,3,3,3,500,8,4,4,4,500,3,3,500,4,5,500,3,500,10,5,500,4,4,3,3,4,3,3,3,3,500,3,8,500,500,500,4,500,4,13,13,4,7,3,500,4,3,3,4,500,500,3,500,3,500,3,100,500,5,4,4,3,500,3,3,4,3,4,4,500,500,500,8,4,3,4,3,3,13,3,4,4,3,3,3,3,13,13,3,3,5,5,4,4,4,4,3,3,3,3,3,3,3,3,100,100,100,100,8,8,4,4,4,4,500,7,4,8,3,3,500,3,5,8,8,3,8,3,3,4,10,5,8,4,4,4,5,3,3,4,4,9,5,4,4,3,3,3,500,4,13,3,500,5,4,4,500,7,4,3,4,4,500,500,5,100,3,100,4,4,13,13,3,3,3,5,5,5,8,100,3,3,3,3,3,3,500,8,4,4,4,500,3,3,500,4,5,500,3,500,10,5,500,4,4,3,3,4,3,3,3,3,500,3,8,500,500,500,4,500,4,13,13,4,7,3,500,4,3,3,4,500,500,3,500,3,500,3,100,500,5,4,4,3,500,3,3,4,3,4,4,500,500,500,8,4,3,4,3,3,13,3,4,4];

periods = [20000,100000,20000,20000,10000,100000,20000,100000,50000,10000,50000,10000,10000,10000,10000,10000,100000,100000,100000,100000,1000,20000,10000,10000,10000,20000,1000,100000,1000,20000,10000,100000,10000,20000,100000,10000,100000,100000,20000,2000,100000,50000,100000,20000,100000,100000,100000,1000,20000,100000,10000,20000,10000,10000,20000,100000,5000,10000,1000,100000,20000,10000,10000,100000,100000,20000,20000,10000,20000,100000,1000,20000,10000,100000,10000,20000,10000,2000,10000,5000,20000,10000,10000,50000,10000,20000,20000,20000,100000,20000,10000,20000,1000,20000,10000,1000,20000,100000,10000,20000,20000,20000,20000,20000,20000,100000,100000,100000,20000,20000,20000,20000,20000,20000,20000,20000,10000,10000,10000,100000,20000,100000,100000,100000,100000,50000,50000,50000,50000,50000,10000,10000,10000,10000,10000,10000,10000,10000,10000,10000,10000,10000,100000,100000,100000,100000,100000,100000,100000,100000,100000,1000,1000,1000,20000,20000,20000,20000,20000,20000,20000,1000,100000,100000,100000,1000,1000,1000,1000,1000,20000,20000,20000,10000,10000,10000,100000,10000,10000,10000,10000,10000,20000,20000,20000,20000,100000,100000,20000,20000,20000,2000,100000,100000,100000,20000,20000,100000,100000,1000,20000,100000,10000,10000,20000,20000,20000,5000,5000,10000,1000,1000,10000,10000,10000,10000,100000,20000,20000,10000,20000,20000,20000,100000,1000,20000,10000,10000,10000,10000,10000,10000,10000,10000,20000,10000,10000,10000,10000,10000,20000,20000,100000,10000,10000,1000,20000,10000,20000,20000,10000,10000,10000,10000,10000,10000,10000,10000,10000,10000,10000,10000,10000,10000,10000,10000,20000,20000,100000,100000,10000,10000,1000,1000,1000,1000,5000,5000,20000,20000,20000,20000,20000,20000,20000,20000,20000,100000,100000,100000,20000,20000,20000,20000,20000,20000,20000,20000,10000,10000,10000,100000,20000,100000,100000,100000,100000,50000,50000,50000,50000,50000,10000,10000,10000,10000,10000,10000,10000,10000,10000,10000,10000,10000,100000,100000,100000,100000,100000,100000,100000,100000,100000,1000,1000,1000,20000,20000,20000,20000,20000,20000,20000,1000,100000,100000,100000,1000,1000,1000,1000,1000,20000,20000,20000,10000,10000,10000,100000,10000,10000,10000,10000,10000,20000,20000,20000,20000,100000,100000,20000,20000,20000,2000,100000,100000,100000,20000,20000,100000,100000,1000,20000,100000,10000,10000,20000,20000,20000,5000,5000,10000,1000,1000,10000,10000,10000,10000,100000,20000,20000,10000,20000,20000,20000,100000,1000,20000,10000,10000,10000,10000,10000,10000,10000,10000,20000,10000,10000,10000,10000,10000,20000,20000,100000,10000,10000,1000,20000,10000,20000,20000];

assignmentToClusters = [1,2,3,4,5,6,7,8,9,10,11,12,13,14,15,16,17,18,19,20,21,22,23,24,12,25,26,27,28,29,15,30,31,32,33,34,35,36,37,38,39,40,41,42,33,43,44,45,46,47,48,49,50,51,52,47,53,34,45,54,55,23,56,57,58,59,60,12,37,33,61,25,15,62,63,64,65,66,50,53,67,15,68,69,51,70,71,72,73,60,23,55,45,74,23,75,76,77,78,55,79,80,81,82,83,84,85,86,87,88,89,90,91,92,93,94,95,96,97,98,99,100,101,102,103,104,105,106,107,108,109,110,111,112,113,114,115,116,117,118,119,120,121,122,123,124,125,126,127,128,129,130,131,132,133,134,135,136,137,138,139,140,141,142,143,144,145,146,147,148,149,150,151,152,153,154,155,156,157,158,159,160,161,162,163,164,165,166,167,168,169,170,171,172,173,174,175,176,177,178,179,180,181,182,183,184,185,186,187,188,189,190,191,192,193,194,195,196,197,198,199,200,201,202,203,204,205,206,207,208,209,210,211,212,213,214,215,216,217,218,219,220,221,222,223,224,225,226,227,228,12,12,12,12,15,15,15,15,15,15,23,23,23,23,23,23,25,25,33,33,34,34,45,45,45,45,53,53,55,55,60,60,79,80,81,82,83,84,85,86,87,88,89,90,91,92,93,94,95,96,97,98,99,100,101,102,103,104,105,106,107,108,109,110,111,112,113,114,115,116,117,118,119,120,121,122,123,124,125,126,127,128,129,130,131,132,133,134,135,136,137,138,139,140,141,142,143,144,145,146,147,148,149,150,151,152,153,154,155,156,157,158,159,160,161,162,163,164,165,166,167,168,169,170,171,172,173,174,175,176,177,178,179,180,181,182,183,184,185,186,187,188,189,190,191,192,193,194,195,196,197,198,199,200,201,202,203,204,205,206,207,208,209,210,211,212,213,214,215,216,217,218,219,220,221,222,223,224,225,226,227,228];

precedenceAdjList = [[],[],[],[],[],[],[],[],[],[],[],[],[],[],[],[],[],[],[],[],[],[],[261],[],[253],[],[],[],[],[],[259],[],[],[],[],[],[],[],[68],[],[],[],[],[],[269],[],[],[273],[],[55],[],[],[78],[],[],[],[],[271],[275],[],[91],[],[],[],[],[],[281],[251],[],[34],[],[267],[257],[],[],[],[],[],[],[277],[],[255],[],[],[53],[],[],[],[],[],[265],[279],[],[],[263],[],[],[],[],[],[],[],[],[],[],[],[],[],[],[],[],[],[],[],[],[],[],[],[],[],[],[],[],[],[],[],[],[],[],[],[],[],[],[],[],[],[],[],[],[],[],[],[],[],[],[],[],[],[],[],[],[],[],[],[],[],[],[],[],[],[],[],[],[],[],[],[],[],[],[],[],[],[],[],[],[],[],[],[],[],[],[],[],[],[],[],[],[],[],[],[],[],[],[],[],[],[],[],[],[],[],[],[],[],[],[],[],[],[],[],[],[],[],[],[],[],[],[],[],[],[],[],[],[],[],[],[],[],[],[],[],[],[],[],[],[],[],[],[],[],[],[],[],[],[],[],[],[],[],[],[11],[250],[67],[252],[14],[254],[81],[256],[72],[258],[94],[260],[61],[262],[22],[264],[25],[266],[69],[268],[35],[270],[58],[272],[92],[274],[56],[276],[99],[278],[89],[280],[100],[101],[102],[103],[104],[105],[106],[107],[108],[109],[110],[111],[112],[113],[114],[115],[116],[117],[118],[119],[120],[121],[122],[123],[124],[125],[126],[127],[128],[129],[130],[131],[132],[133],[134],[135],[136],[137],[138],[139],[140],[141],[142],[143],[144],[145],[146],[147],[148],[149],[150],[151],[152],[153],[154],[155],[156],[157],[158],[159],[160],[161],[162],[163],[164],[165],[166],[167],[168],[169],[170],[171],[172],[173],[174],[175],[176],[177],[178],[179],[180],[181],[182],[183],[184],[185],[186],[187],[188],[189],[190],[191],[192],[193],[194],[195],[196],[197],[198],[199],[200],[201],[202],[203],[204],[205],[206],[207],[208],[209],[210],[211],[212],[213],[214],[215],[216],[217],[218],[219],[220],[221],[222],[223],[224],[225],[226],[227],[228],[229],[230],[231],[232],[233],[234],[235],[236],[237],[238],[239],[240],[241],[242],[243],[244],[245],[246],[247],[248],[249]];